Welcome to the CBC MILP Solver
Version: Devel (unstable)
Build Date: Feb  6 2022
command line - -import /home/danilo/psp-janniele/J30/j3014/j3014_10.lp -timeM elapsed -seconds 10800 -solve -quit (default strategy 1)
seconds was changed from 1e+08 to 10800
Continuous objective value is 0 - 0.148143 seconds
Cgl0002I 13 variables fixed
Cgl0003I 0 fixed, 0 tightened bounds, 5 strengthened rows, 0 substitutions
Cgl0003I 0 fixed, 0 tightened bounds, 1 strengthened rows, 0 substitutions
Cgl0003I 0 fixed, 0 tightened bounds, 1 strengthened rows, 0 substitutions
Cgl0003I 0 fixed, 0 tightened bounds, 1 strengthened rows, 0 substitutions
Cgl0003I 0 fixed, 0 tightened bounds, 1 strengthened rows, 0 substitutions
Cgl0003I 0 fixed, 0 tightened bounds, 1 strengthened rows, 0 substitutions
Cgl0003I 0 fixed, 0 tightened bounds, 1 strengthened rows, 0 substitutions
Cgl0003I 0 fixed, 0 tightened bounds, 1 strengthened rows, 0 substitutions
Cgl0003I 0 fixed, 0 tightened bounds, 1 strengthened rows, 0 substitutions
Cgl0004I processed model has 237 rows, 626 columns (626 integer (625 of which binary)) and 9113 elements
Coin3009W Conflict graph built in 0.027 seconds, density: 1.528%
Cgl0015I Clique Strengthening extended 0 cliques, 0 were dominated
Cbc0045I Cutoff increment increased from 0.0001 to 0.9999
Cbc0045I 1 integer variables out of 626 objects (626 integer) have cost of -1 - high priority
Cbc0045I branch on satisfied Y create fake objective Y random cost Y
Cbc0038I Initial state - 54 integers unsatisfied sum - 13.8493
Cbc0038I Pass   1: suminf.    7.98010 (33) obj. 1.11022e-16 iterations 158
Cbc0038I Pass   2: suminf.    6.59107 (29) obj. 1.11022e-16 iterations 46
Cbc0038I Pass   3: suminf.    6.57453 (29) obj. 1.11022e-16 iterations 29
Cbc0038I Pass   4: suminf.    7.51502 (22) obj. 1.11022e-16 iterations 108
Cbc0038I Pass   5: suminf.    6.25179 (33) obj. 1.11022e-16 iterations 56
Cbc0038I Pass   6: suminf.    5.67469 (24) obj. 1.11022e-16 iterations 38
Cbc0038I Pass   7: suminf.    5.28277 (24) obj. -4.44089e-16 iterations 12
Cbc0038I Pass   8: suminf.    5.31871 (23) obj. 1.11022e-16 iterations 74
Cbc0038I Pass   9: suminf.    4.49583 (23) obj. -4.44089e-16 iterations 43
Cbc0038I Pass  10: suminf.    4.48889 (23) obj. -4.44089e-16 iterations 9
Cbc0038I Pass  11: suminf.    4.76752 (22) obj. -4.44089e-16 iterations 53
Cbc0038I Pass  12: suminf.    3.82992 (35) obj. 0.023392 iterations 34
Cbc0038I Pass  13: suminf.    9.46570 (40) obj. 0.297263 iterations 149
Cbc0038I Pass  14: suminf.    8.50368 (38) obj. 0.279412 iterations 24
Cbc0038I Pass  15: suminf.    8.02715 (39) obj. 0.302083 iterations 17
Cbc0038I Pass  16: suminf.    7.85659 (39) obj. 0.278494 iterations 20
Cbc0038I Pass  17: suminf.    7.85659 (39) obj. 0.278494 iterations 10
Cbc0038I Pass  18: suminf.    6.10732 (26) obj. 1 iterations 104
Cbc0038I Pass  19: suminf.    5.40282 (33) obj. 1 iterations 22
Cbc0038I Pass  20: suminf.    5.26416 (32) obj. 1 iterations 11
Cbc0038I Pass  21: suminf.    6.46437 (26) obj. 1 iterations 141
Cbc0038I Pass  22: suminf.    2.92288 (16) obj. 1 iterations 78
Cbc0038I Pass  23: suminf.    2.82778 (19) obj. 1 iterations 27
Cbc0038I Pass  24: suminf.    6.10447 (23) obj. 1 iterations 71
Cbc0038I Pass  25: suminf.    4.11833 (21) obj. 1 iterations 46
Cbc0038I Pass  26: suminf.    3.40894 (22) obj. 1 iterations 36
Cbc0038I Pass  27: suminf.    6.11806 (21) obj. 1 iterations 68
Cbc0038I Pass  28: suminf.    3.20513 (18) obj. 1 iterations 72
Cbc0038I Pass  29: suminf.    3.20513 (18) obj. 1 iterations 2
Cbc0038I Pass  30: suminf.    5.28075 (21) obj. 1 iterations 89
Cbc0038I Pass  31: suminf.    4.70000 (21) obj. 1 iterations 44
Cbc0038I Pass  32: suminf.    3.02564 (15) obj. 1 iterations 68
Cbc0038I Pass  33: suminf.    2.55556 (11) obj. 1 iterations 38
Cbc0038I Pass  34: suminf.    2.55556 (11) obj. 1 iterations 13
Cbc0038I Pass  35: suminf.    3.80916 (18) obj. 1 iterations 68
Cbc0038I Pass  36: suminf.    3.59722 (15) obj. 1 iterations 33
Cbc0038I Pass  37: suminf.    2.36111 (15) obj. 1 iterations 18
Cbc0038I Pass  38: suminf.    2.11111 (11) obj. 1 iterations 14
Cbc0038I Pass  39: suminf.    1.95139 (9) obj. 1 iterations 93
Cbc0038I Pass  40: suminf.    1.73889 (9) obj. 1 iterations 43
Cbc0038I Pass  41: suminf.    2.77778 (11) obj. 1 iterations 105
Cbc0038I Pass  42: suminf.    2.77778 (15) obj. 1 iterations 32
Cbc0038I Pass  43: suminf.    2.13889 (10) obj. 1 iterations 71
Cbc0038I Pass  44: suminf.    2.13889 (10) obj. 1 iterations 7
Cbc0038I Pass  45: suminf.    2.88889 (11) obj. 1 iterations 68
Cbc0038I Pass  46: suminf.    2.11111 (10) obj. 1 iterations 45
Cbc0038I Pass  47: suminf.    2.11111 (10) obj. 1 iterations 7
Cbc0038I Pass  48: suminf.    2.28205 (11) obj. 1 iterations 70
Cbc0038I Pass  49: suminf.    2.28205 (11) obj. 1 iterations 23
Cbc0038I Pass  50: suminf.    3.11111 (15) obj. 1 iterations 71
Cbc0038I Pass  51: suminf.    2.39198 (16) obj. 1 iterations 51
Cbc0038I Pass  52: suminf.    4.01905 (19) obj. 1 iterations 66
Cbc0038I Pass  53: suminf.    2.36111 (15) obj. 1 iterations 60
Cbc0038I Pass  54: suminf.    1.89043 (14) obj. 1 iterations 29
Cbc0038I Pass  55: suminf.    6.52725 (22) obj. 1 iterations 63
Cbc0038I Pass  56: suminf.    4.20427 (16) obj. 1 iterations 64
Cbc0038I Pass  57: suminf.    4.20427 (16) obj. 1 iterations 9
Cbc0038I Pass  58: suminf.    4.06222 (16) obj. 1 iterations 84
Cbc0038I Pass  59: suminf.    1.66667 (9) obj. 1 iterations 71
Cbc0038I Pass  60: suminf.    2.13968 (11) obj. 1 iterations 68
Cbc0038I Pass  61: suminf.    1.66667 (9) obj. 1 iterations 52
Cbc0038I Pass  62: suminf.    2.36190 (12) obj. 1 iterations 60
Cbc0038I Pass  63: suminf.    1.89043 (14) obj. 1 iterations 66
Cbc0038I Pass  64: suminf.    4.59048 (16) obj. 1 iterations 57
Cbc0038I Pass  65: suminf.    2.64926 (15) obj. 1 iterations 56
Cbc0038I Pass  66: suminf.    4.30556 (18) obj. 1 iterations 75
Cbc0038I Pass  67: suminf.    3.91667 (22) obj. 1 iterations 17
Cbc0038I Pass  68: suminf.    3.68010 (22) obj. 1 iterations 17
Cbc0038I Pass  69: suminf.    4.13847 (17) obj. 1 iterations 51
Cbc0038I Pass  70: suminf.    3.01343 (20) obj. 1 iterations 40
Cbc0038I Pass  71: suminf.    3.95602 (16) obj. 1 iterations 71
Cbc0038I Pass  72: suminf.    2.91667 (16) obj. 1 iterations 66
Cbc0038I Pass  73: suminf.    4.23675 (15) obj. 1 iterations 91
Cbc0038I Pass  74: suminf.    3.18765 (18) obj. 1 iterations 39
Cbc0038I Pass  75: suminf.    2.91870 (18) obj. 1 iterations 12
Cbc0038I Pass  76: suminf.    2.77704 (17) obj. 1 iterations 24
Cbc0038I Pass  77: suminf.    4.74180 (23) obj. 1 iterations 85
Cbc0038I Pass  78: suminf.    3.11111 (16) obj. 1 iterations 64
Cbc0038I Pass  79: suminf.    2.11111 (11) obj. 1 iterations 73
Cbc0038I Pass  80: suminf.    1.66667 (9) obj. 1 iterations 55
Cbc0038I Pass  81: suminf.    2.36190 (12) obj. 1 iterations 55
Cbc0038I Pass  82: suminf.    1.89043 (14) obj. 1 iterations 59
Cbc0038I Pass  83: suminf.    6.52725 (22) obj. 1 iterations 53
Cbc0038I Pass  84: suminf.    3.88519 (17) obj. 1 iterations 57
Cbc0038I Pass  85: suminf.    2.88889 (17) obj. 1 iterations 42
Cbc0038I Pass  86: suminf.    2.66667 (17) obj. 1 iterations 14
Cbc0038I Pass  87: suminf.    3.45556 (17) obj. 1 iterations 70
Cbc0038I Pass  88: suminf.    2.83654 (18) obj. 1 iterations 37
Cbc0038I Pass  89: suminf.    2.67605 (15) obj. 1 iterations 77
Cbc0038I Pass  90: suminf.    1.89043 (14) obj. 1 iterations 47
Cbc0038I Pass  91: suminf.    6.52725 (22) obj. 1 iterations 56
Cbc0038I Pass  92: suminf.    3.88519 (17) obj. 1 iterations 55
Cbc0038I Pass  93: suminf.    2.88889 (17) obj. 1 iterations 41
Cbc0038I Pass  94: suminf.    2.66667 (17) obj. 1 iterations 15
Cbc0038I Pass  95: suminf.    3.42880 (18) obj. 1 iterations 82
Cbc0038I Pass  96: suminf.    2.83654 (18) obj. 1 iterations 27
Cbc0038I Pass  97: suminf.    2.67605 (15) obj. 1 iterations 64
Cbc0038I Pass  98: suminf.    1.66667 (9) obj. 1 iterations 85
Cbc0038I Pass  99: suminf.    2.13968 (11) obj. 1 iterations 73
Cbc0038I Pass 100: suminf.   11.67896 (51) obj. 1.11022e-16 iterations 161
Cbc0038I No solution found this major pass
Cbc0038I Before mini branch and bound, 417 integers at bound fixed and 0 continuous
Cbc0038I Full problem 237 rows 626 columns, reduced to 176 rows 201 columns - too large
Cbc0038I Mini branch and bound did not improve solution (2.42 seconds)
Cbc0038I Full problem 238 rows 626 columns, reduced to 238 rows 626 columns - too large
Cbc0038I After 2.53 seconds - Feasibility pump exiting - took 1.18 seconds
Cbc0031I 57 added rows had average density of 40
Cbc0013I At root node, 57 cuts changed objective from 1.110223e-16 to 0 in 10 passes
Cbc0014I Cut generator 0 (Probing) - 128 row cuts average 5.0 elements, 0 column cuts (0 active)  in 0.442 seconds - new frequency is -100
Cbc0014I Cut generator 1 (Gomory) - 174 row cuts average 541.4 elements, 0 column cuts (0 active)  in 0.398 seconds - new frequency is -100
Cbc0014I Cut generator 2 (Knapsack) - 28 row cuts average 12.8 elements, 0 column cuts (0 active)  in 0.076 seconds - new frequency is -100
Cbc0014I Cut generator 3 (Clique) - 0 row cuts average 0.0 elements, 0 column cuts (0 active)  in 0.008 seconds - new frequency is -100
Cbc0014I Cut generator 4 (OddWheel) - 0 row cuts average 0.0 elements, 0 column cuts (0 active)  in 0.028 seconds - new frequency is -100
Cbc0014I Cut generator 5 (MixedIntegerRounding2) - 50 row cuts average 44.5 elements, 0 column cuts (0 active)  in 0.043 seconds - new frequency is -100
Cbc0014I Cut generator 6 (FlowCover) - 0 row cuts average 0.0 elements, 0 column cuts (0 active)  in 0.006 seconds - new frequency is -100
Cbc0014I Cut generator 7 (TwoMirCuts) - 122 row cuts average 42.5 elements, 0 column cuts (0 active)  in 0.081 seconds - new frequency is -100
Cbc0014I Cut generator 8 (ZeroHalf) - 96 row cuts average 82.4 elements, 0 column cuts (0 active)  in 0.074 seconds - new frequency is -100
Cbc0010I After 0 nodes, 1 on tree, 1e+50 best solution, best possible 1.110223e-16 (4.60 seconds)
Cbc0010I After 6 nodes, 5 on tree, 1e+50 best solution, best possible 1.110223e-16 (5.45 seconds)
Cbc0010I After 14 nodes, 7 on tree, 1e+50 best solution, best possible 1.110223e-16 (6.23 seconds)
Cbc0010I After 24 nodes, 10 on tree, 1e+50 best solution, best possible 1.110223e-16 (6.97 seconds)
Cbc0010I After 39 nodes, 8 on tree, 1e+50 best solution, best possible 1.110223e-16 (7.69 seconds)
Cbc0010I After 51 nodes, 6 on tree, 1e+50 best solution, best possible 1.110223e-16 (8.40 seconds)
Cbc0010I After 78 nodes, 12 on tree, 1e+50 best solution, best possible 1.110223e-16 (9.11 seconds)
Cbc0010I After 135 nodes, 15 on tree, 1e+50 best solution, best possible 1.110223e-16 (9.81 seconds)
Cbc0010I After 188 nodes, 17 on tree, 1e+50 best solution, best possible 1.110223e-16 (10.52 seconds)
Cbc0010I After 249 nodes, 15 on tree, 1e+50 best solution, best possible 1.110223e-16 (11.23 seconds)
Cbc0010I After 317 nodes, 14 on tree, 1e+50 best solution, best possible 1.110223e-16 (11.93 seconds)
Cbc0010I After 402 nodes, 15 on tree, 1e+50 best solution, best possible 1.110223e-16 (12.66 seconds)
Cbc0010I After 442 nodes, 19 on tree, 1e+50 best solution, best possible 1.110223e-16 (13.36 seconds)
Cbc0010I After 503 nodes, 20 on tree, 1e+50 best solution, best possible 1.110223e-16 (14.10 seconds)
Cbc0010I After 561 nodes, 22 on tree, 1e+50 best solution, best possible 1.110223e-16 (14.82 seconds)
Cbc0010I After 602 nodes, 20 on tree, 1e+50 best solution, best possible 1.110223e-16 (15.53 seconds)
Cbc0010I After 638 nodes, 19 on tree, 1e+50 best solution, best possible 1.110223e-16 (16.23 seconds)
Cbc0010I After 684 nodes, 21 on tree, 1e+50 best solution, best possible 1.110223e-16 (16.93 seconds)
Cbc0010I After 714 nodes, 21 on tree, 1e+50 best solution, best possible 1.110223e-16 (17.69 seconds)
Cbc0010I After 750 nodes, 17 on tree, 1e+50 best solution, best possible 1.110223e-16 (18.40 seconds)
Cbc0010I After 782 nodes, 9 on tree, 1e+50 best solution, best possible 1.110223e-16 (19.12 seconds)
Cbc0010I After 807 nodes, 5 on tree, 1e+50 best solution, best possible 1.110223e-16 (19.88 seconds)
Cbc0010I After 828 nodes, 10 on tree, 1e+50 best solution, best possible 1.110223e-16 (20.62 seconds)
Cbc0010I After 855 nodes, 8 on tree, 1e+50 best solution, best possible 1.110223e-16 (21.36 seconds)
Cbc0010I After 875 nodes, 6 on tree, 1e+50 best solution, best possible 1.110223e-16 (22.09 seconds)
Cbc0010I After 912 nodes, 8 on tree, 1e+50 best solution, best possible 1.110223e-16 (22.80 seconds)
Cbc0010I After 954 nodes, 5 on tree, 1e+50 best solution, best possible 1.110223e-16 (23.50 seconds)
Cbc0010I After 978 nodes, 7 on tree, 1e+50 best solution, best possible 1.110223e-16 (24.23 seconds)
Cbc0010I After 1003 nodes, 6 on tree, 1e+50 best solution, best possible 1.110223e-16 (24.96 seconds)
Cbc0010I After 1014 nodes, 17 on tree, 1e+50 best solution, best possible 1.110223e-16 (25.66 seconds)
Cbc0010I After 1034 nodes, 37 on tree, 1e+50 best solution, best possible 1.110223e-16 (26.36 seconds)
Cbc0010I After 1057 nodes, 58 on tree, 1e+50 best solution, best possible 1.110223e-16 (27.07 seconds)
Cbc0010I After 1119 nodes, 120 on tree, 1e+50 best solution, best possible 1.110223e-16 (27.78 seconds)
Cbc0010I After 1178 nodes, 120 on tree, 1e+50 best solution, best possible 1.110223e-16 (28.49 seconds)
Cbc0010I After 1243 nodes, 98 on tree, 1e+50 best solution, best possible 1.110223e-16 (29.19 seconds)
Cbc0010I After 1293 nodes, 98 on tree, 1e+50 best solution, best possible 1.110223e-16 (29.90 seconds)
Cbc0010I After 1360 nodes, 87 on tree, 1e+50 best solution, best possible 1.110223e-16 (30.61 seconds)
Cbc0010I After 1427 nodes, 83 on tree, 1e+50 best solution, best possible 1.110223e-16 (31.31 seconds)
Cbc0010I After 1488 nodes, 93 on tree, 1e+50 best solution, best possible 1.110223e-16 (32.02 seconds)
Cbc0010I After 1548 nodes, 75 on tree, 1e+50 best solution, best possible 1.110223e-16 (32.72 seconds)
Cbc0010I After 1587 nodes, 64 on tree, 1e+50 best solution, best possible 1.110223e-16 (33.46 seconds)
Cbc0010I After 1620 nodes, 67 on tree, 1e+50 best solution, best possible 1.110223e-16 (34.16 seconds)
Cbc0010I After 1652 nodes, 59 on tree, 1e+50 best solution, best possible 1.110223e-16 (34.88 seconds)
Cbc0010I After 1699 nodes, 64 on tree, 1e+50 best solution, best possible 1.110223e-16 (35.58 seconds)
Cbc0010I After 1733 nodes, 57 on tree, 1e+50 best solution, best possible 1.110223e-16 (36.28 seconds)
Cbc0010I After 1763 nodes, 56 on tree, 1e+50 best solution, best possible 1.110223e-16 (36.99 seconds)
Cbc0010I After 1819 nodes, 63 on tree, 1e+50 best solution, best possible 1.110223e-16 (37.69 seconds)
Cbc0010I After 1864 nodes, 57 on tree, 1e+50 best solution, best possible 1.110223e-16 (38.42 seconds)
Cbc0010I After 1892 nodes, 57 on tree, 1e+50 best solution, best possible 1.110223e-16 (39.15 seconds)
Cbc0010I After 1938 nodes, 61 on tree, 1e+50 best solution, best possible 1.110223e-16 (39.85 seconds)
Cbc0010I After 1988 nodes, 56 on tree, 1e+50 best solution, best possible 1.110223e-16 (40.55 seconds)
Cbc0010I After 2023 nodes, 54 on tree, 1e+50 best solution, best possible 1.110223e-16 (41.26 seconds)
Cbc0010I After 2061 nodes, 48 on tree, 1e+50 best solution, best possible 1.110223e-16 (41.99 seconds)
Cbc0010I After 2092 nodes, 47 on tree, 1e+50 best solution, best possible 1.110223e-16 (42.71 seconds)
Cbc0010I After 2115 nodes, 52 on tree, 1e+50 best solution, best possible 1.110223e-16 (43.42 seconds)
Cbc0010I After 2157 nodes, 48 on tree, 1e+50 best solution, best possible 1.110223e-16 (44.17 seconds)
Cbc0010I After 2184 nodes, 56 on tree, 1e+50 best solution, best possible 1.110223e-16 (44.88 seconds)
Cbc0010I After 2223 nodes, 46 on tree, 1e+50 best solution, best possible 1.110223e-16 (45.59 seconds)
Cbc0010I After 2250 nodes, 41 on tree, 1e+50 best solution, best possible 1.110223e-16 (46.33 seconds)
Cbc0010I After 2269 nodes, 48 on tree, 1e+50 best solution, best possible 1.110223e-16 (47.05 seconds)
Cbc0010I After 2297 nodes, 42 on tree, 1e+50 best solution, best possible 1.110223e-16 (47.77 seconds)
Cbc0010I After 2323 nodes, 40 on tree, 1e+50 best solution, best possible 1.110223e-16 (48.47 seconds)
Cbc0010I After 2358 nodes, 30 on tree, 1e+50 best solution, best possible 1.110223e-16 (49.18 seconds)
Cbc0010I After 2387 nodes, 28 on tree, 1e+50 best solution, best possible 1.110223e-16 (49.91 seconds)
Cbc0010I After 2425 nodes, 42 on tree, 1e+50 best solution, best possible 1.110223e-16 (50.62 seconds)
Cbc0010I After 2463 nodes, 42 on tree, 1e+50 best solution, best possible 1.110223e-16 (51.33 seconds)
Cbc0010I After 2505 nodes, 41 on tree, 1e+50 best solution, best possible 1.110223e-16 (52.03 seconds)
Cbc0010I After 2546 nodes, 33 on tree, 1e+50 best solution, best possible 1.110223e-16 (52.73 seconds)
Cbc0010I After 2584 nodes, 33 on tree, 1e+50 best solution, best possible 1.110223e-16 (53.45 seconds)
Cbc0010I After 2616 nodes, 29 on tree, 1e+50 best solution, best possible 1.110223e-16 (54.16 seconds)
Cbc0010I After 2646 nodes, 27 on tree, 1e+50 best solution, best possible 1.110223e-16 (54.91 seconds)
Cbc0010I After 2685 nodes, 38 on tree, 1e+50 best solution, best possible 1.110223e-16 (55.63 seconds)
Cbc0010I After 2730 nodes, 32 on tree, 1e+50 best solution, best possible 1.110223e-16 (56.33 seconds)
Cbc0010I After 2759 nodes, 18 on tree, 1e+50 best solution, best possible 1.110223e-16 (57.09 seconds)
Cbc0010I After 2789 nodes, 22 on tree, 1e+50 best solution, best possible 1.110223e-16 (57.79 seconds)
Cbc0010I After 2822 nodes, 25 on tree, 1e+50 best solution, best possible 1.110223e-16 (58.50 seconds)
Cbc0010I After 2852 nodes, 25 on tree, 1e+50 best solution, best possible 1.110223e-16 (59.23 seconds)
Cbc0010I After 2892 nodes, 14 on tree, 1e+50 best solution, best possible 1.110223e-16 (59.93 seconds)
Cbc0010I After 2908 nodes, 29 on tree, 1e+50 best solution, best possible 1.110223e-16 (60.64 seconds)
Cbc0010I After 2936 nodes, 29 on tree, 1e+50 best solution, best possible 1.110223e-16 (61.36 seconds)
Cbc0010I After 2974 nodes, 34 on tree, 1e+50 best solution, best possible 1.110223e-16 (62.07 seconds)
Cbc0010I After 3011 nodes, 30 on tree, 1e+50 best solution, best possible 1.110223e-16 (62.80 seconds)
Cbc0010I After 3047 nodes, 23 on tree, 1e+50 best solution, best possible 1.110223e-16 (63.51 seconds)
Cbc0010I After 3073 nodes, 28 on tree, 1e+50 best solution, best possible 1.110223e-16 (64.23 seconds)
Cbc0010I After 3110 nodes, 23 on tree, 1e+50 best solution, best possible 1.110223e-16 (64.93 seconds)
Cbc0010I After 3154 nodes, 33 on tree, 1e+50 best solution, best possible 1.110223e-16 (65.64 seconds)
Cbc0010I After 3194 nodes, 24 on tree, 1e+50 best solution, best possible 1.110223e-16 (66.35 seconds)
Cbc0010I After 3223 nodes, 18 on tree, 1e+50 best solution, best possible 1.110223e-16 (67.06 seconds)
Cbc0010I After 3257 nodes, 20 on tree, 1e+50 best solution, best possible 1.110223e-16 (67.77 seconds)
Cbc0010I After 3285 nodes, 18 on tree, 1e+50 best solution, best possible 1.110223e-16 (68.48 seconds)
Cbc0010I After 3312 nodes, 31 on tree, 1e+50 best solution, best possible 1.110223e-16 (69.19 seconds)
Cbc0010I After 3369 nodes, 42 on tree, 1e+50 best solution, best possible 1.110223e-16 (69.91 seconds)
Cbc0010I After 3423 nodes, 38 on tree, 1e+50 best solution, best possible 1.110223e-16 (70.64 seconds)
Cbc0010I After 3480 nodes, 32 on tree, 1e+50 best solution, best possible 1.110223e-16 (71.35 seconds)
Cbc0010I After 3542 nodes, 36 on tree, 1e+50 best solution, best possible 1.110223e-16 (72.05 seconds)
Cbc0010I After 3587 nodes, 42 on tree, 1e+50 best solution, best possible 1.110223e-16 (72.75 seconds)
Cbc0010I After 3644 nodes, 37 on tree, 1e+50 best solution, best possible 1.110223e-16 (73.45 seconds)
Cbc0010I After 3711 nodes, 38 on tree, 1e+50 best solution, best possible 1.110223e-16 (74.18 seconds)
Cbc0010I After 3798 nodes, 43 on tree, 1e+50 best solution, best possible 1.110223e-16 (74.90 seconds)
Cbc0010I After 3874 nodes, 35 on tree, 1e+50 best solution, best possible 1.110223e-16 (75.61 seconds)
Cbc0010I After 3957 nodes, 32 on tree, 1e+50 best solution, best possible 1.110223e-16 (76.31 seconds)
Cbc0010I After 4021 nodes, 42 on tree, 1e+50 best solution, best possible 1.110223e-16 (77.02 seconds)
Cbc0010I After 4108 nodes, 31 on tree, 1e+50 best solution, best possible 1.110223e-16 (77.73 seconds)
Cbc0010I After 4178 nodes, 51 on tree, 1e+50 best solution, best possible 1.110223e-16 (78.44 seconds)
Cbc0010I After 4255 nodes, 48 on tree, 1e+50 best solution, best possible 1.110223e-16 (79.16 seconds)
Cbc0010I After 4338 nodes, 39 on tree, 1e+50 best solution, best possible 1.110223e-16 (79.88 seconds)
Cbc0010I After 4412 nodes, 32 on tree, 1e+50 best solution, best possible 1.110223e-16 (80.58 seconds)
Cbc0010I After 4470 nodes, 32 on tree, 1e+50 best solution, best possible 1.110223e-16 (81.29 seconds)
Cbc0010I After 4518 nodes, 59 on tree, 1e+50 best solution, best possible 1.110223e-16 (82.00 seconds)
Cbc0010I After 4572 nodes, 34 on tree, 1e+50 best solution, best possible 1.110223e-16 (82.73 seconds)
Cbc0010I After 4619 nodes, 32 on tree, 1e+50 best solution, best possible 1.110223e-16 (83.43 seconds)
Cbc0010I After 4673 nodes, 32 on tree, 1e+50 best solution, best possible 1.110223e-16 (84.17 seconds)
Cbc0010I After 4746 nodes, 31 on tree, 1e+50 best solution, best possible 1.110223e-16 (84.89 seconds)
Cbc0010I After 4799 nodes, 32 on tree, 1e+50 best solution, best possible 1.110223e-16 (85.61 seconds)
Cbc0010I After 4866 nodes, 35 on tree, 1e+50 best solution, best possible 1.110223e-16 (86.32 seconds)
Cbc0010I After 4909 nodes, 28 on tree, 1e+50 best solution, best possible 1.110223e-16 (87.06 seconds)
Cbc0010I After 4962 nodes, 40 on tree, 1e+50 best solution, best possible 1.110223e-16 (87.76 seconds)
Cbc0010I After 5004 nodes, 37 on tree, 1e+50 best solution, best possible 1.110223e-16 (88.50 seconds)
Cbc0010I After 5040 nodes, 50 on tree, 1e+50 best solution, best possible 1.110223e-16 (89.22 seconds)
Cbc0010I After 5092 nodes, 43 on tree, 1e+50 best solution, best possible 1.110223e-16 (89.92 seconds)
Cbc0010I After 5147 nodes, 52 on tree, 1e+50 best solution, best possible 1.110223e-16 (90.63 seconds)
Cbc0010I After 5200 nodes, 47 on tree, 1e+50 best solution, best possible 1.110223e-16 (91.36 seconds)
Cbc0010I After 5239 nodes, 42 on tree, 1e+50 best solution, best possible 1.110223e-16 (92.07 seconds)
Cbc0010I After 5282 nodes, 43 on tree, 1e+50 best solution, best possible 1.110223e-16 (92.78 seconds)
Cbc0010I After 5316 nodes, 43 on tree, 1e+50 best solution, best possible 1.110223e-16 (93.50 seconds)
Cbc0010I After 5354 nodes, 35 on tree, 1e+50 best solution, best possible 1.110223e-16 (94.27 seconds)
Cbc0010I After 5388 nodes, 46 on tree, 1e+50 best solution, best possible 1.110223e-16 (94.99 seconds)
Cbc0010I After 5429 nodes, 40 on tree, 1e+50 best solution, best possible 1.110223e-16 (95.73 seconds)
Cbc0010I After 5492 nodes, 30 on tree, 1e+50 best solution, best possible 1.110223e-16 (96.43 seconds)
Cbc0010I After 5539 nodes, 35 on tree, 1e+50 best solution, best possible 1.110223e-16 (97.13 seconds)
Cbc0010I After 5598 nodes, 23 on tree, 1e+50 best solution, best possible 1.110223e-16 (97.85 seconds)
Cbc0010I After 5632 nodes, 23 on tree, 1e+50 best solution, best possible 1.110223e-16 (98.57 seconds)
Cbc0010I After 5670 nodes, 25 on tree, 1e+50 best solution, best possible 1.110223e-16 (99.30 seconds)
Cbc0010I After 5712 nodes, 21 on tree, 1e+50 best solution, best possible 1.110223e-16 (100.01 seconds)
Cbc0010I After 5746 nodes, 19 on tree, 1e+50 best solution, best possible 1.110223e-16 (100.71 seconds)
Cbc0010I After 5794 nodes, 35 on tree, 1e+50 best solution, best possible 1.110223e-16 (101.42 seconds)
Cbc0010I After 5847 nodes, 35 on tree, 1e+50 best solution, best possible 1.110223e-16 (102.13 seconds)
Cbc0010I After 5903 nodes, 30 on tree, 1e+50 best solution, best possible 1.110223e-16 (102.84 seconds)
Cbc0010I After 5970 nodes, 23 on tree, 1e+50 best solution, best possible 1.110223e-16 (103.56 seconds)
Cbc0010I After 6009 nodes, 20 on tree, 1e+50 best solution, best possible 1.110223e-16 (104.26 seconds)
Cbc0010I After 6050 nodes, 26 on tree, 1e+50 best solution, best possible 1.110223e-16 (104.97 seconds)
Cbc0010I After 6092 nodes, 19 on tree, 1e+50 best solution, best possible 1.110223e-16 (105.68 seconds)
Cbc0010I After 6132 nodes, 23 on tree, 1e+50 best solution, best possible 1.110223e-16 (106.40 seconds)
Cbc0010I After 6192 nodes, 17 on tree, 1e+50 best solution, best possible 1.110223e-16 (107.14 seconds)
Cbc0010I After 6235 nodes, 40 on tree, 1e+50 best solution, best possible 1.110223e-16 (107.86 seconds)
Cbc0010I After 6266 nodes, 31 on tree, 1e+50 best solution, best possible 1.110223e-16 (108.56 seconds)
Cbc0010I After 6303 nodes, 37 on tree, 1e+50 best solution, best possible 1.110223e-16 (109.27 seconds)
Cbc0010I After 6336 nodes, 31 on tree, 1e+50 best solution, best possible 1.110223e-16 (110.01 seconds)
Cbc0010I After 6376 nodes, 21 on tree, 1e+50 best solution, best possible 1.110223e-16 (110.72 seconds)
Cbc0010I After 6413 nodes, 26 on tree, 1e+50 best solution, best possible 1.110223e-16 (111.44 seconds)
Cbc0010I After 6444 nodes, 33 on tree, 1e+50 best solution, best possible 1.110223e-16 (112.16 seconds)
Cbc0010I After 6485 nodes, 19 on tree, 1e+50 best solution, best possible 1.110223e-16 (112.87 seconds)
Cbc0010I After 6512 nodes, 27 on tree, 1e+50 best solution, best possible 1.110223e-16 (113.59 seconds)
Cbc0010I After 6548 nodes, 19 on tree, 1e+50 best solution, best possible 1.110223e-16 (114.32 seconds)
Cbc0010I After 6574 nodes, 12 on tree, 1e+50 best solution, best possible 1.110223e-16 (115.04 seconds)
Cbc0010I After 6605 nodes, 23 on tree, 1e+50 best solution, best possible 1.110223e-16 (115.77 seconds)
Cbc0010I After 6664 nodes, 26 on tree, 1e+50 best solution, best possible 1.110223e-16 (116.50 seconds)
Cbc0010I After 6709 nodes, 17 on tree, 1e+50 best solution, best possible 1.110223e-16 (117.21 seconds)
Cbc0010I After 6749 nodes, 19 on tree, 1e+50 best solution, best possible 1.110223e-16 (117.91 seconds)
Cbc0010I After 6806 nodes, 15 on tree, 1e+50 best solution, best possible 1.110223e-16 (118.62 seconds)
Cbc0010I After 6848 nodes, 18 on tree, 1e+50 best solution, best possible 1.110223e-16 (119.36 seconds)
Cbc0010I After 6878 nodes, 13 on tree, 1e+50 best solution, best possible 1.110223e-16 (120.07 seconds)
Cbc0010I After 6910 nodes, 25 on tree, 1e+50 best solution, best possible 1.110223e-16 (120.78 seconds)
Cbc0010I After 6944 nodes, 18 on tree, 1e+50 best solution, best possible 1.110223e-16 (121.49 seconds)
Cbc0010I After 6985 nodes, 22 on tree, 1e+50 best solution, best possible 1.110223e-16 (122.22 seconds)
Cbc0010I After 7037 nodes, 24 on tree, 1e+50 best solution, best possible 1.110223e-16 (122.92 seconds)
Cbc0010I After 7132 nodes, 17 on tree, 1e+50 best solution, best possible 1.110223e-16 (123.67 seconds)
Cbc0010I After 7187 nodes, 15 on tree, 1e+50 best solution, best possible 1.110223e-16 (124.38 seconds)
Cbc0010I After 7239 nodes, 16 on tree, 1e+50 best solution, best possible 1.110223e-16 (125.09 seconds)
Cbc0010I After 7276 nodes, 15 on tree, 1e+50 best solution, best possible 1 (125.82 seconds)
Cbc0010I After 7325 nodes, 38 on tree, 1e+50 best solution, best possible 1 (126.53 seconds)
Cbc0010I After 7382 nodes, 31 on tree, 1e+50 best solution, best possible 1 (127.24 seconds)
Cbc0010I After 7443 nodes, 23 on tree, 1e+50 best solution, best possible 1 (127.95 seconds)
Cbc0010I After 7466 nodes, 23 on tree, 1e+50 best solution, best possible 1 (128.66 seconds)
Cbc0010I After 7500 nodes, 13 on tree, 1e+50 best solution, best possible 1 (129.39 seconds)
Cbc0010I After 7549 nodes, 14 on tree, 1e+50 best solution, best possible 1 (130.11 seconds)
Cbc0010I After 7577 nodes, 30 on tree, 1e+50 best solution, best possible 1 (130.82 seconds)
Cbc0010I After 7627 nodes, 24 on tree, 1e+50 best solution, best possible 1 (131.56 seconds)
Cbc0010I After 7656 nodes, 23 on tree, 1e+50 best solution, best possible 1 (132.27 seconds)
Cbc0010I After 7699 nodes, 17 on tree, 1e+50 best solution, best possible 1 (132.98 seconds)
Cbc0010I After 7734 nodes, 25 on tree, 1e+50 best solution, best possible 1 (133.68 seconds)
Cbc0010I After 7796 nodes, 11 on tree, 1e+50 best solution, best possible 1 (134.39 seconds)
Cbc0010I After 7823 nodes, 20 on tree, 1e+50 best solution, best possible 1 (135.10 seconds)
Cbc0010I After 7862 nodes, 5 on tree, 1e+50 best solution, best possible 1 (135.88 seconds)
Cbc0010I After 7892 nodes, 35 on tree, 1e+50 best solution, best possible 1 (136.59 seconds)
Cbc0010I After 7956 nodes, 38 on tree, 1e+50 best solution, best possible 1 (137.30 seconds)
Cbc0010I After 8000 nodes, 29 on tree, 1e+50 best solution, best possible 1 (138.00 seconds)
Cbc0010I After 8036 nodes, 23 on tree, 1e+50 best solution, best possible 1 (138.70 seconds)
Cbc0010I After 8089 nodes, 24 on tree, 1e+50 best solution, best possible 1 (139.41 seconds)
Cbc0010I After 8137 nodes, 26 on tree, 1e+50 best solution, best possible 1 (140.13 seconds)
Cbc0010I After 8191 nodes, 16 on tree, 1e+50 best solution, best possible 1 (140.85 seconds)
Cbc0010I After 8250 nodes, 11 on tree, 1e+50 best solution, best possible 1 (141.56 seconds)
Cbc0010I After 8280 nodes, 11 on tree, 1e+50 best solution, best possible 1 (142.29 seconds)
Cbc0010I After 8315 nodes, 17 on tree, 1e+50 best solution, best possible 1 (143.00 seconds)
Cbc0010I After 8368 nodes, 21 on tree, 1e+50 best solution, best possible 1 (143.70 seconds)
Cbc0010I After 8415 nodes, 30 on tree, 1e+50 best solution, best possible 1 (144.41 seconds)
Cbc0010I After 8476 nodes, 34 on tree, 1e+50 best solution, best possible 1 (145.12 seconds)
Cbc0010I After 8534 nodes, 33 on tree, 1e+50 best solution, best possible 1 (145.83 seconds)
Cbc0010I After 8603 nodes, 42 on tree, 1e+50 best solution, best possible 1 (146.54 seconds)
Cbc0010I After 8663 nodes, 28 on tree, 1e+50 best solution, best possible 1 (147.24 seconds)
Cbc0010I After 8715 nodes, 26 on tree, 1e+50 best solution, best possible 1 (147.96 seconds)
Cbc0010I After 8769 nodes, 32 on tree, 1e+50 best solution, best possible 1 (148.67 seconds)
Cbc0010I After 8822 nodes, 24 on tree, 1e+50 best solution, best possible 1 (149.38 seconds)
Cbc0010I After 8873 nodes, 26 on tree, 1e+50 best solution, best possible 1 (150.11 seconds)
Cbc0010I After 8921 nodes, 18 on tree, 1e+50 best solution, best possible 1 (150.81 seconds)
Cbc0010I After 8965 nodes, 19 on tree, 1e+50 best solution, best possible 1 (151.52 seconds)
Cbc0010I After 9002 nodes, 24 on tree, 1e+50 best solution, best possible 1 (152.23 seconds)
Cbc0010I After 9046 nodes, 54 on tree, 1e+50 best solution, best possible 1 (152.94 seconds)
Cbc0010I After 9158 nodes, 67 on tree, 1e+50 best solution, best possible 1 (153.64 seconds)
Cbc0010I After 9224 nodes, 68 on tree, 1e+50 best solution, best possible 1 (154.34 seconds)
Cbc0010I After 9294 nodes, 42 on tree, 1e+50 best solution, best possible 1 (155.08 seconds)
Cbc0010I After 9342 nodes, 38 on tree, 1e+50 best solution, best possible 1 (155.81 seconds)
Cbc0010I After 9377 nodes, 61 on tree, 1e+50 best solution, best possible 1 (156.52 seconds)
Cbc0010I After 9461 nodes, 63 on tree, 1e+50 best solution, best possible 1 (157.22 seconds)
Cbc0010I After 9529 nodes, 73 on tree, 1e+50 best solution, best possible 1 (157.92 seconds)
Cbc0016I Integer solution of 1 found by strong branching after 450018 iterations and 9606 nodes (158.53 seconds)
Cbc0001I Search completed - best objective 1, took 450018 iterations and 9606 nodes (158.54 seconds)
Cbc0032I Strong branching done 29968 times (462311 iterations), fathomed 630 nodes and fixed 4023 variables
Cbc0035I Maximum depth 127, 0 variables fixed on reduced cost
Cuts at root node changed objective from 1.11022e-16 to 1.11022e-16
Probing was tried 10 times and created 128 cuts of which 0 were active after adding rounds of cuts (0.44185 seconds)
Gomory was tried 10 times and created 174 cuts of which 0 were active after adding rounds of cuts (0.398013 seconds)
Knapsack was tried 10 times and created 28 cuts of which 0 were active after adding rounds of cuts (0.076151 seconds)
Clique was tried 10 times and created 0 cuts of which 0 were active after adding rounds of cuts (0.007672 seconds)
OddWheel was tried 10 times and created 0 cuts of which 0 were active after adding rounds of cuts (0.028274 seconds)
MixedIntegerRounding2 was tried 10 times and created 50 cuts of which 0 were active after adding rounds of cuts (0.042622 seconds)
FlowCover was tried 10 times and created 0 cuts of which 0 were active after adding rounds of cuts (0.00597 seconds)
TwoMirCuts was tried 10 times and created 122 cuts of which 0 were active after adding rounds of cuts (0.081486 seconds)
ZeroHalf was tried 10 times and created 96 cuts of which 0 were active after adding rounds of cuts (0.07448 seconds)

Result - Optimal solution found
Objective value:                1
Enumerated nodes:               9606
Total iterations:               450018
Time (CPU seconds):             158.627
Time (Wallclock seconds):       158.584
Total time (CPU seconds):       158.653   (Wallclock seconds):       158.597
